NAME : berlin52-R-5-3-a.9012.tour
COMMENT : Length = 9012
COMMENT : Found by LKH-3 [Keld Helsgaun] Tue Jul 30 13:14:23 2024
TYPE : TOUR
DIMENSION : 52
TOUR_SECTION
1
36
39
40
38
5
15
6
4
43
8
45
3
17
7
2
42
30
29
47
26
11
52
14
13
27
28
12
51
33
10
9
41
19
32
49
35
34
37
48
24
25
46
44
16
50
20
23
21
31
18
22
-1
EOF
